set V := 0 1 2 3 4 5 6 7 8 9 10 11 12 13 14 15 16 17 18 19 20 21 22 23 24 25 26 27 28 29 30 31 32 33 34 35 ;
set C := 0 2 4 5 7 8 10 12 14 15 16 17 18 19 20 21 22 24 25 26 28 29 30 35 ;
set F := 0 1 2 3 4 5 6 7 8 9 ;
set E := (12,7) (7,12) (7,2) (2,7) (2,3) (3,2) (3,10) (10,3) (10,17) (17,10) (17,23) (23,17) (23,28) (28,23) (28,33) (33,28) (33,32) (32,33) (32,25) (25,32) (25,18) (18,25) (18,12) (12,18) (12,13) (13,12) (28,29) (29,28) (10,11) (11,10) (7,8) (8,7) (25,26) (26,25) (28,34) (34,28) (25,19) (19,25) (25,31) (31,25) (2,1) (1,2) (28,27) (27,28) (23,22) (22,23) (7,6) (6,7) (25,24) (24,25) (3,4) (4,3) (10,16) (16,10) (28,35) (35,28) (3,9) (9,3) (31,30) (30,31) (10,5) (5,10) (7,14) (14,7) (6,0) (0,6) (16,15) (15,16) (14,20) (20,14) (22,21) (21,22) ;

param : p_node bx by :=
0 40000000000.0 43.6955353867 124.33219963
1 0 -55.2684255816 880.99807488
2 40000000000.0 -51.8851619578 1894.96073357
3 0 55.8867576543 3025.21012374
4 40000000000.0 -141.608150547 4101.09086332
5 40000000000.0 94.1873153451 5183.2279448
6 0 785.647874734 4.7084740699
7 40000000000.0 1088.54583753 1034.19173373
8 40000000000.0 1108.97562645 1874.29585517
9 0 1235.3817627 3028.2688895
10 40000000000.0 1017.15721766 4248.83896444
11 0 1138.58007168 4921.83372147
12 40000000000.0 1906.18440372 301.525817554
13 0 2098.72293895 860.465581975
14 40000000000.0 2078.24273743 1958.45092984
15 40000000000.0 2052.707342 3223.74897779
16 40000000000.0 2054.1823579 3838.19389781
17 40000000000.0 1933.08544589 5137.92415982
18 40000000000.0 2756.12321452 -124.672852969
19 40000000000.0 3025.69655435 891.477867501
20 40000000000.0 2863.27053799 2088.87270238
21 40000000000.0 2834.38028937 2995.89596373
22 40000000000.0 3024.15440025 3818.36035192
23 0 3130.10546657 4870.44077214
24 40000000000.0 4014.32760122 -64.1091199297
25 40000000000.0 3965.3990933 1012.84304121
26 40000000000.0 3992.47522783 1883.21868927
27 0 3964.02434422 3170.504865
28 40000000000.0 4124.41908443 4192.22921141
29 40000000000.0 3982.17290199 4788.25643962
30 40000000000.0 4933.47680423 167.339549006
31 0 4910.00006951 790.676790463
32 0 4969.676158 1981.67315015
33 0 5055.00730579 2995.41253558
34 0 4993.78179349 3934.98752173
35 40000000000.0 4963.70306016 4969.73745508
;
param : b_cap l_cap :=
12 7 750000000.0 5.31007522087e-06
7 12 750000000.0 5.31007522087e-06
7 2 750000000.0 6.9107096083e-06
2 7 750000000.0 6.9107096083e-06
2 3 750000000.0 5.49144928191e-06
3 2 750000000.0 5.49144928191e-06
3 10 750000000.0 7.52614111328e-06
10 3 750000000.0 7.52614111328e-06
10 17 750000000.0 6.17391656399e-06
17 10 750000000.0 6.17391656399e-06
17 23 750000000.0 5.93238845816e-06
23 17 750000000.0 5.93238845816e-06
23 28 750000000.0 5.82138215761e-06
28 23 750000000.0 5.82138215761e-06
28 33 750000000.0 7.3325791678e-06
33 28 750000000.0 7.3325791678e-06
33 32 750000000.0 4.92047197601e-06
32 33 750000000.0 4.92047197601e-06
32 25 750000000.0 6.74921166447e-06
25 32 750000000.0 6.74921166447e-06
25 18 750000000.0 8.02989373845e-06
18 25 750000000.0 8.02989373845e-06
18 12 750000000.0 4.59876727447e-06
12 18 750000000.0 4.59876727447e-06
12 13 500000000.0 2.85931111709e-06
13 12 500000000.0 2.85931111709e-06
28 29 500000000.0 2.96375371288e-06
29 28 500000000.0 2.96375371288e-06
10 11 500000000.0 3.30761493069e-06
11 10 500000000.0 3.30761493069e-06
7 8 500000000.0 4.06451557124e-06
8 7 500000000.0 4.06451557124e-06
25 26 500000000.0 4.21176442413e-06
26 25 500000000.0 4.21176442413e-06
28 34 500000000.0 4.38504355003e-06
34 28 500000000.0 4.38504355003e-06
25 19 500000000.0 4.58278974433e-06
19 25 500000000.0 4.58278974433e-06
25 31 500000000.0 4.6933957608e-06
31 25 500000000.0 4.6933957608e-06
2 1 500000000.0 4.90423958396e-06
1 2 500000000.0 4.90423958396e-06
28 27 500000000.0 5.00227497165e-06
27 28 500000000.0 5.00227497165e-06
23 22 500000000.0 5.11431410587e-06
22 23 500000000.0 5.11431410587e-06
7 6 500000000.0 5.19032931653e-06
6 7 500000000.0 5.19032931653e-06
25 24 500000000.0 5.21424536169e-06
24 25 500000000.0 5.21424536169e-06
3 4 500000000.0 5.29063663189e-06
4 3 500000000.0 5.29063663189e-06
10 16 500000000.0 5.3946876775e-06
16 10 500000000.0 5.3946876775e-06
28 35 500000000.0 5.53354310301e-06
35 28 500000000.0 5.53354310301e-06
3 9 500000000.0 5.704858353e-06
9 3 500000000.0 5.704858353e-06
31 30 500000000.0 3.01701992983e-06
30 31 500000000.0 3.01701992983e-06
10 5 500000000.0 6.35237804671e-06
5 10 500000000.0 6.35237804671e-06
7 14 500000000.0 6.54964794639e-06
14 7 500000000.0 6.54964794639e-06
6 0 500000000.0 3.63492821765e-06
0 6 500000000.0 3.63492821765e-06
16 15 500000000.0 2.97188163804e-06
15 16 500000000.0 2.97188163804e-06
14 20 500000000.0 3.848971245e-06
20 14 500000000.0 3.848971245e-06
22 21 500000000.0 4.08251807758e-06
21 22 500000000.0 4.08251807758e-06
;
param : b_flow l_flow p_flow fx fy :=
0 2011535.978 0.01 6559678.26365 1678.90715965 3177.51986555
1 4843054.93441 0.01 6652031.47776 3575.87563082 1163.62099085
2 4051697.37279 0.01 8769970.70988 5154.27434546 4746.60014883
3 2690559.53043 0.01 6506710.88944 3570.04536599 4625.21455588
4 572258.656013 0.01 1801373.8401 2089.93410407 2670.51217265
5 629629.392874 0.01 1079530.37205 5809.60223956 4986.66176122
6 3734503.81414 0.01 7456788.85395 808.322268961 20.13903389
7 3128871.5232 0.01 6706641.58797 3848.62059399 2633.70274488
8 3827532.62855 0.01 5281414.68735 -983.184870752 1102.00609185
9 4375922.09942 0.01 8353554.52444 520.030080074 75.7508503195
;
param : b_CLC := 1e5 ;
param : b_CRC := 1e5 ;
param : l_CLC := 1e-3 ;
param : l_CRC := 1e-2 ;
param : p_CLC := 1e6 ;
param : p_CRC := 1e6 ;

param : bigM := 1e10 ;

param : dist := 1000.0 ;
param : dim1 := 6 ;
param : dim2 := 6 ;

param : W :=
0 0 0
0 1 0
0 2 0
0 3 0
0 4 0
0 5 0
0 6 0
0 7 0
0 8 0
0 9 0
0 10 0
0 11 0
0 12 0
0 13 0
0 14 0
0 15 1
0 16 0
0 17 0
0 18 0
0 19 0
0 20 0
0 21 0
0 22 0
0 23 0
0 24 0
0 25 0
0 26 0
0 27 0
0 28 0
0 29 0
0 30 0
0 31 0
0 32 0
0 33 0
0 34 0
0 35 0
1 0 0
1 1 0
1 2 0
1 3 0
1 4 0
1 5 0
1 6 0
1 7 0
1 8 0
1 9 0
1 10 0
1 11 0
1 12 0
1 13 0
1 14 0
1 15 0
1 16 0
1 17 0
1 18 0
1 19 1
1 20 0
1 21 0
1 22 0
1 23 0
1 24 0
1 25 0
1 26 0
1 27 0
1 28 0
1 29 0
1 30 0
1 31 0
1 32 0
1 33 0
1 34 0
1 35 0
2 0 0
2 1 0
2 2 0
2 3 0
2 4 0
2 5 0
2 6 0
2 7 0
2 8 0
2 9 0
2 10 0
2 11 0
2 12 0
2 13 0
2 14 0
2 15 0
2 16 0
2 17 0
2 18 0
2 19 0
2 20 0
2 21 0
2 22 0
2 23 0
2 24 0
2 25 0
2 26 0
2 27 0
2 28 0
2 29 0
2 30 0
2 31 0
2 32 0
2 33 0
2 34 0
2 35 1
3 0 0
3 1 0
3 2 0
3 3 0
3 4 0
3 5 0
3 6 0
3 7 0
3 8 0
3 9 0
3 10 0
3 11 0
3 12 0
3 13 0
3 14 0
3 15 0
3 16 0
3 17 0
3 18 0
3 19 0
3 20 0
3 21 0
3 22 0
3 23 0
3 24 0
3 25 0
3 26 0
3 27 0
3 28 0
3 29 1
3 30 0
3 31 0
3 32 0
3 33 0
3 34 0
3 35 0
4 0 0
4 1 0
4 2 0
4 3 0
4 4 0
4 5 0
4 6 0
4 7 0
4 8 0
4 9 0
4 10 0
4 11 0
4 12 0
4 13 0
4 14 0
4 15 1
4 16 0
4 17 0
4 18 0
4 19 0
4 20 0
4 21 0
4 22 0
4 23 0
4 24 0
4 25 0
4 26 0
4 27 0
4 28 0
4 29 0
4 30 0
4 31 0
4 32 0
4 33 0
4 34 0
4 35 0
5 0 0
5 1 0
5 2 0
5 3 0
5 4 0
5 5 0
5 6 0
5 7 0
5 8 0
5 9 0
5 10 0
5 11 0
5 12 0
5 13 0
5 14 0
5 15 0
5 16 0
5 17 0
5 18 0
5 19 0
5 20 0
5 21 0
5 22 0
5 23 0
5 24 0
5 25 0
5 26 0
5 27 0
5 28 1
5 29 0
5 30 0
5 31 0
5 32 0
5 33 0
5 34 0
5 35 0
6 0 0
6 1 0
6 2 0
6 3 0
6 4 0
6 5 0
6 6 1
6 7 0
6 8 0
6 9 0
6 10 0
6 11 0
6 12 0
6 13 0
6 14 0
6 15 0
6 16 0
6 17 0
6 18 0
6 19 0
6 20 0
6 21 0
6 22 0
6 23 0
6 24 0
6 25 0
6 26 0
6 27 0
6 28 0
6 29 0
6 30 0
6 31 0
6 32 0
6 33 0
6 34 0
6 35 0
7 0 0
7 1 0
7 2 0
7 3 0
7 4 0
7 5 0
7 6 0
7 7 0
7 8 0
7 9 0
7 10 0
7 11 0
7 12 0
7 13 0
7 14 0
7 15 0
7 16 0
7 17 0
7 18 0
7 19 0
7 20 0
7 21 0
7 22 0
7 23 0
7 24 0
7 25 0
7 26 1
7 27 0
7 28 0
7 29 0
7 30 0
7 31 0
7 32 0
7 33 0
7 34 0
7 35 0
8 0 0
8 1 1
8 2 0
8 3 0
8 4 0
8 5 0
8 6 0
8 7 0
8 8 0
8 9 0
8 10 0
8 11 0
8 12 0
8 13 0
8 14 0
8 15 0
8 16 0
8 17 0
8 18 0
8 19 0
8 20 0
8 21 0
8 22 0
8 23 0
8 24 0
8 25 0
8 26 0
8 27 0
8 28 0
8 29 0
8 30 0
8 31 0
8 32 0
8 33 0
8 34 0
8 35 0
9 0 1
9 1 0
9 2 0
9 3 0
9 4 0
9 5 0
9 6 0
9 7 0
9 8 0
9 9 0
9 10 0
9 11 0
9 12 0
9 13 0
9 14 0
9 15 0
9 16 0
9 17 0
9 18 0
9 19 0
9 20 0
9 21 0
9 22 0
9 23 0
9 24 0
9 25 0
9 26 0
9 27 0
9 28 0
9 29 0
9 30 0
9 31 0
9 32 0
9 33 0
9 34 0
9 35 0
;
